ORG = {A,B,C,D,E,F,G,H,I,J,K,L};
T = 40;
passengers = 2;
compatibility = [|true, false, false, false, false, false, true, true, true, true, true, true
                 |false, true, true, true, true, true, true, true, true, true, true, true
                 |false, true, true, true, true, true, true, true, true, true, true, true
                 |false, true, true, true, true, true, true, true, true, true, true, true
                 |false, true, true, true, true, true, true, true, true, true, true, true
                 |false, true, true, true, true, true, true, true, true, true, true, true
                 |true, true, true, true, true, true, true, false, false, false, false, false
                 |true, true, true, true, true, true, false, true, true, true, true, true
                 |true, true, true, true, true, true, false, true, true, true, true, true
                 |true, true, true, true, true, true, false, true, true, true, true, true
                 |true, true, true, true, true, true, false, true, true, true, true, true
                 |true, true, true, true, true, true, false, true, true, true, true, true|];
                 
%steps=15